10 45
1 2 6
1 3 19
1 4 28
1 5 14
1 6 10
1 7 7
1 8 28
1 9 20
1 10 6
2 3 25
2 4 18
2 5 22
2 6 10
2 7 10
2 8 23
2 9 20
2 10 3
3 4 7
3 5 23
3 6 2
3 7 21
3 8 20
3 9 1
3 10 23
4 5 11
4 6 29
4 7 5
4 8 1
4 9 27
4 10 20
5 6 0
5 7 11
5 8 25
5 9 21
5 10 28
6 7 11
6 8 24
6 9 16
6 10 26
7 8 26
7 9 9
7 10 27
8 9 27
8 10 15
9 10 14
